(benchmark gametime
:status unknown
:logic QF_AUFBV
:extrafuns ((gtINDEX72  BitVec[32]))
:extrafuns ((gtFIELD__bitsForTID0__gtAGG____anonstruct_D_Work_4  Array[32:32]))
:extrafuns ((gtINDEX73  BitVec[32]))
:extrafuns ((gtAGG__rtDWork  BitVec[32]))
:extrafuns ((gtINDEX70  BitVec[32]))
:extrafuns ((gtINDEX71  BitVec[32]))
:extrafuns ((gtINDEX68  BitVec[32]))
:extrafuns ((gtINDEX69  BitVec[32]))
:extrafuns ((gtINDEX66  BitVec[32]))
:extrafuns ((gtINDEX67  BitVec[32]))
:extrafuns ((gtINDEX65  BitVec[32]))
:extrafuns ((gtINDEX64  BitVec[32]))
:extrafuns ((gtINDEX63  BitVec[32]))
:extrafuns ((gtINDEX62  BitVec[32]))
:extrafuns ((gtINDEX60  BitVec[32]))
:extrafuns ((gtINDEX61  BitVec[32]))
:extrafuns ((gtINDEX58  BitVec[32]))
:extrafuns ((gtINDEX59  BitVec[32]))
:extrafuns ((gtINDEX56  BitVec[32]))
:extrafuns ((gtINDEX57  BitVec[32]))
:extrafuns ((gtINDEX54  BitVec[32]))
:extrafuns ((gtINDEX55  BitVec[32]))
:extrafuns ((gtINDEX52  BitVec[32]))
:extrafuns ((gtINDEX53  BitVec[32]))
:extrafuns ((gtINDEX50  BitVec[32]))
:extrafuns ((gtINDEX51  BitVec[32]))
:extrafuns ((gtINDEX48  BitVec[32]))
:extrafuns ((gtINDEX49  BitVec[32]))
:extrafuns ((gtINDEX46  BitVec[32]))
:extrafuns ((gtINDEX47  BitVec[32]))
:extrafuns ((gtINDEX44  BitVec[32]))
:extrafuns ((gtINDEX45  BitVec[32]))
:extrafuns ((gtINDEX42  BitVec[32]))
:extrafuns ((gtINDEX43  BitVec[32]))
:extrafuns ((gtINDEX40  BitVec[32]))
:extrafuns ((gtINDEX41  BitVec[32]))
:extrafuns ((gtINDEX38  BitVec[32]))
:extrafuns ((gtINDEX39  BitVec[32]))
:extrafuns ((gtINDEX36  BitVec[32]))
:extrafuns ((gtINDEX37  BitVec[32]))
:extrafuns ((gtINDEX34  BitVec[32]))
:extrafuns ((gtINDEX35  BitVec[32]))
:extrafuns ((gtINDEX33  BitVec[32]))
:extrafuns ((gtINDEX32  BitVec[32]))
:extrafuns ((gtINDEX31  BitVec[32]))
:extrafuns ((gtINDEX30  BitVec[32]))
:extrafuns ((gtINDEX29  BitVec[32]))
:extrafuns ((gtINDEX28  BitVec[32]))
:extrafuns ((gtINDEX26  BitVec[32]))
:extrafuns ((gtINDEX27  BitVec[32]))
:extrafuns ((gtINDEX24  BitVec[32]))
:extrafuns ((gtINDEX25  BitVec[32]))
:extrafuns ((gtINDEX22  BitVec[32]))
:extrafuns ((gtINDEX23  BitVec[32]))
:extrafuns ((gtINDEX20  BitVec[32]))
:extrafuns ((gtINDEX21  BitVec[32]))
:extrafuns ((gtINDEX18  BitVec[32]))
:extrafuns ((gtINDEX19  BitVec[32]))
:extrafuns ((gtINDEX16  BitVec[32]))
:extrafuns ((gtINDEX17  BitVec[32]))
:extrafuns ((gtINDEX14  BitVec[32]))
:extrafuns ((gtINDEX15  BitVec[32]))
:extrafuns ((gtINDEX12  BitVec[32]))
:extrafuns ((gtINDEX13  BitVec[32]))
:extrafuns ((gtINDEX10  BitVec[32]))
:extrafuns ((gtINDEX11  BitVec[32]))
:extrafuns ((gtINDEX8  BitVec[32]))
:extrafuns ((gtINDEX9  BitVec[32]))
:extrafuns ((gtINDEX6  BitVec[32]))
:extrafuns ((gtINDEX7  BitVec[32]))
:extrafuns ((gtINDEX4  BitVec[32]))
:extrafuns ((gtINDEX5  BitVec[32]))
:extrafuns ((gtINDEX2  BitVec[32]))
:extrafuns ((gtINDEX3  BitVec[32]))
:extrafuns ((gtINDEX0  BitVec[32]))
:extrafuns ((gtINDEX1  BitVec[32]))
:extrafuns ((gtFIELD__is_Eng__gtAGG____anonstruct_bitsForTID0_5_1_  Array[32:1]))
:extrafuns ((gtFIELD__is_Eng__gtAGG____anonstruct_bitsForTID0_5_2_  Array[32:1]))
:extrafuns ((sf_previousEvent_1_  BitVec[32]))
:extrafuns ((sfEvent__2_  BitVec[32]))
:extrafuns ((gtFIELD__is_Eng__gtAGG____anonstruct_bitsForTID0_5  Array[32:1]))
:extrafuns ((gtFIELD__sent__gtAGG____anonstruct_D_Work_4_1_  Array[32:32]))
:extrafuns ((gtFIELD__sent__gtAGG____anonstruct_D_Work_4_2_  Array[32:32]))
:extrafuns ((gtFIELD__is_active_Eng__gtAGG____anonstruct_bitsForTID0_5  Array[32:1]))
:extrafuns ((gtFIELD__is_active_PURI__gtAGG____anonstruct_bitsForTID0_5  Array[32:1]))
:extrafuns ((sfEvent__1_  BitVec[32]))
:extrafuns ((gtFIELD__is_PVRP__gtAGG____anonstruct_bitsForTID0_5  Array[32:2]))
:extrafuns ((gtFIELD__is_active_PVRP__gtAGG____anonstruct_bitsForTID0_5  Array[32:1]))
:extrafuns ((gtFIELD__is_PPVARP__gtAGG____anonstruct_bitsForTID0_5_1_  Array[32:2]))
:extrafuns ((gtFIELD__is_PPVARP__gtAGG____anonstruct_bitsForTID0_5_2_  Array[32:2]))
:extrafuns ((gtFIELD__is_active_PPVARP__gtAGG____anonstruct_bitsForTID0_5  Array[32:1]))
:extrafuns ((gtFIELD__is_PLRI__gtAGG____anonstruct_bitsForTID0_5  Array[32:2]))
:extrafuns ((gtFIELD__is_active_PLRI__gtAGG____anonstruct_bitsForTID0_5  Array[32:1]))
:extrafuns ((gtFIELD__is_active_PAVI__gtAGG____anonstruct_bitsForTID0_5  Array[32:1]))
:extrafuns ((sfEvent_  BitVec[32]))
:extrafuns ((gtFIELD__sent__gtAGG____anonstruct_D_Work_4  Array[32:32]))
:extrafuns ((gtFIELD__is_PPVARP__gtAGG____anonstruct_bitsForTID0_5  Array[32:2]))
:extrapreds ((constraint128 ))
:extrapreds ((constraint127 ))
:extrapreds ((constraint126 ))
:extrapreds ((constraint125 ))
:extrapreds ((constraint124 ))
:extrapreds ((constraint123 ))
:extrapreds ((constraint122 ))
:extrapreds ((constraint121 ))
:extrapreds ((constraint120 ))
:extrapreds ((constraint119 ))
:extrapreds ((constraint118 ))
:extrapreds ((constraint117 ))
:extrapreds ((constraint116 ))
:extrapreds ((constraint115 ))
:extrapreds ((constraint114 ))
:extrapreds ((constraint113 ))
:extrapreds ((constraint112 ))
:extrapreds ((constraint111 ))
:extrapreds ((constraint110 ))
:extrapreds ((constraint109 ))
:extrapreds ((constraint108 ))
:extrapreds ((constraint107 ))
:extrapreds ((constraint106 ))
:extrapreds ((constraint105 ))
:extrapreds ((constraint104 ))
:extrapreds ((constraint103 ))
:extrapreds ((constraint102 ))
:extrapreds ((constraint101 ))
:extrapreds ((constraint100 ))
:extrapreds ((constraint99 ))
:extrapreds ((constraint98 ))
:extrapreds ((constraint97 ))
:extrapreds ((constraint96 ))
:extrapreds ((constraint95 ))
:extrapreds ((constraint94 ))
:extrapreds ((constraint93 ))
:extrapreds ((constraint92 ))
:extrapreds ((constraint91 ))
:extrapreds ((constraint90 ))
:extrapreds ((constraint89 ))
:extrapreds ((constraint88 ))
:extrapreds ((constraint87 ))
:extrapreds ((constraint86 ))
:extrapreds ((constraint85 ))
:extrapreds ((constraint84 ))
:extrapreds ((constraint83 ))
:extrapreds ((constraint82 ))
:extrapreds ((constraint81 ))
:extrapreds ((constraint80 ))
:extrapreds ((constraint79 ))
:extrapreds ((constraint78 ))
:extrapreds ((constraint77 ))
:extrapreds ((constraint76 ))
:extrapreds ((constraint75 ))
:extrapreds ((constraint74 ))
:extrapreds ((constraint73 ))
:extrapreds ((constraint72 ))
:extrapreds ((constraint71 ))
:extrapreds ((constraint70 ))
:extrapreds ((constraint69 ))
:extrapreds ((constraint68 ))
:extrapreds ((constraint67 ))
:extrapreds ((constraint66 ))
:extrapreds ((constraint65 ))
:extrapreds ((constraint64 ))
:extrapreds ((constraint63 ))
:extrapreds ((constraint62 ))
:extrapreds ((constraint61 ))
:extrapreds ((constraint60 ))
:extrapreds ((constraint59 ))
:extrapreds ((constraint58 ))
:extrapreds ((constraint57 ))
:extrapreds ((constraint56 ))
:extrapreds ((constraint55 ))
:extrapreds ((constraint54 ))
:extrapreds ((constraint53 ))
:extrapreds ((constraint52 ))
:extrapreds ((constraint51 ))
:extrapreds ((constraint50 ))
:extrapreds ((constraint49 ))
:extrapreds ((constraint48 ))
:extrapreds ((constraint47 ))
:extrapreds ((constraint46 ))
:extrapreds ((constraint45 ))
:extrapreds ((constraint44 ))
:extrapreds ((constraint43 ))
:extrapreds ((constraint42 ))
:extrapreds ((constraint41 ))
:extrapreds ((constraint40 ))
:extrapreds ((constraint39 ))
:extrapreds ((constraint38 ))
:extrapreds ((constraint37 ))
:extrapreds ((constraint36 ))
:extrapreds ((constraint35 ))
:extrapreds ((constraint34 ))
:extrapreds ((constraint33 ))
:extrapreds ((constraint32 ))
:extrapreds ((constraint31 ))
:extrapreds ((constraint30 ))
:extrapreds ((constraint29 ))
:extrapreds ((constraint28 ))
:extrapreds ((constraint27 ))
:extrapreds ((constraint26 ))
:extrapreds ((constraint25 ))
:extrapreds ((constraint24 ))
:extrapreds ((constraint23 ))
:extrapreds ((constraint22 ))
:extrapreds ((constraint21 ))
:extrapreds ((constraint20 ))
:extrapreds ((constraint19 ))
:extrapreds ((constraint18 ))
:extrapreds ((constraint17 ))
:extrapreds ((constraint16 ))
:extrapreds ((constraint15 ))
:extrapreds ((constraint14 ))
:extrapreds ((constraint13 ))
:extrapreds ((constraint12 ))
:extrapreds ((constraint11 ))
:extrapreds ((constraint10 ))
:extrapreds ((constraint9 ))
:extrapreds ((constraint8 ))
:extrapreds ((constraint7 ))
:extrapreds ((constraint6 ))
:extrapreds ((constraint5 ))
:extrapreds ((constraint4 ))
:extrapreds ((constraint3 ))
:extrapreds ((constraint2 ))
:extrapreds ((constraint1 ))
:extrapreds ((constraint0 ))
:formula
(flet ($x657 (and constraint0 constraint1 constraint2 constraint3 constraint4 constraint5 constraint6 constraint7 constraint8 constraint9 constraint10 constraint11 constraint12 constraint13 constraint14 constraint15 constraint16 constraint17 constraint18 constraint19 constraint20 constraint21 constraint22 constraint23 constraint24 constraint25 constraint26 constraint27 constraint28 constraint29 constraint30 constraint31 constraint32 constraint33 constraint34 constraint35 constraint36 constraint37 constraint38 constraint39 constraint40 constraint41 constraint42 constraint43 constraint44 constraint45 constraint46 constraint47 constraint48 constraint49 constraint50 constraint51 constraint52 constraint53 constraint54 constraint55 constraint56 constraint57 constraint58 constraint59 constraint60 constraint61 constraint62 constraint63 constraint64 constraint65 constraint66 constraint67 constraint68 constraint69 constraint70 constraint71 constraint72 constraint73 constraint74 constraint75 constraint76 constraint77 constraint78 constraint79 constraint80 constraint81 constraint82 constraint83 constraint84 constraint85 constraint86 constraint87 constraint88 constraint89 constraint90 constraint91 constraint92 constraint93 constraint94 constraint95 constraint96 constraint97 constraint98 constraint99 constraint100 constraint101 constraint102 constraint103 constraint104 constraint105 constraint106 constraint107 constraint108 constraint109 constraint110 constraint111 constraint112 constraint113 constraint114 constraint115 constraint116 constraint117 constraint118 constraint119 constraint120 constraint121 constraint122 constraint123 constraint124 constraint125 constraint126 constraint127 constraint128))
(flet ($x397 (= gtINDEX73 (select gtFIELD__bitsForTID0__gtAGG____anonstruct_D_Work_4 gtINDEX72)))
(flet ($x393 (= gtINDEX71 (select gtFIELD__bitsForTID0__gtAGG____anonstruct_D_Work_4 gtINDEX70)))
(flet ($x389 (= gtINDEX69 (select gtFIELD__bitsForTID0__gtAGG____anonstruct_D_Work_4 gtINDEX68)))
(flet ($x385 (= gtINDEX67 (select gtFIELD__bitsForTID0__gtAGG____anonstruct_D_Work_4 gtINDEX66)))
(flet ($x377 (= gtINDEX61 (select gtFIELD__bitsForTID0__gtAGG____anonstruct_D_Work_4 gtINDEX60)))
(flet ($x373 (= gtINDEX59 (select gtFIELD__bitsForTID0__gtAGG____anonstruct_D_Work_4 gtINDEX58)))
(flet ($x369 (= gtINDEX57 (select gtFIELD__bitsForTID0__gtAGG____anonstruct_D_Work_4 gtINDEX56)))
(flet ($x365 (= gtINDEX55 (select gtFIELD__bitsForTID0__gtAGG____anonstruct_D_Work_4 gtINDEX54)))
(flet ($x361 (= gtINDEX53 (select gtFIELD__bitsForTID0__gtAGG____anonstruct_D_Work_4 gtINDEX52)))
(flet ($x357 (= gtINDEX51 (select gtFIELD__bitsForTID0__gtAGG____anonstruct_D_Work_4 gtINDEX50)))
(flet ($x353 (= gtINDEX49 (select gtFIELD__bitsForTID0__gtAGG____anonstruct_D_Work_4 gtINDEX48)))
(flet ($x349 (= gtINDEX47 (select gtFIELD__bitsForTID0__gtAGG____anonstruct_D_Work_4 gtINDEX46)))
(flet ($x345 (= gtINDEX45 (select gtFIELD__bitsForTID0__gtAGG____anonstruct_D_Work_4 gtINDEX44)))
(flet ($x341 (= gtINDEX43 (select gtFIELD__bitsForTID0__gtAGG____anonstruct_D_Work_4 gtINDEX42)))
(flet ($x337 (= gtINDEX41 (select gtFIELD__bitsForTID0__gtAGG____anonstruct_D_Work_4 gtINDEX40)))
(flet ($x333 (= gtINDEX39 (select gtFIELD__bitsForTID0__gtAGG____anonstruct_D_Work_4 gtINDEX38)))
(flet ($x329 (= gtINDEX37 (select gtFIELD__bitsForTID0__gtAGG____anonstruct_D_Work_4 gtINDEX36)))
(flet ($x325 (= gtINDEX35 (select gtFIELD__bitsForTID0__gtAGG____anonstruct_D_Work_4 gtINDEX34)))
(flet ($x315 (= gtINDEX27 (select gtFIELD__bitsForTID0__gtAGG____anonstruct_D_Work_4 gtINDEX26)))
(flet ($x311 (= gtINDEX25 (select gtFIELD__bitsForTID0__gtAGG____anonstruct_D_Work_4 gtINDEX24)))
(flet ($x307 (= gtINDEX23 (select gtFIELD__bitsForTID0__gtAGG____anonstruct_D_Work_4 gtINDEX22)))
(flet ($x303 (= gtINDEX21 (select gtFIELD__bitsForTID0__gtAGG____anonstruct_D_Work_4 gtINDEX20)))
(flet ($x299 (= gtINDEX19 (select gtFIELD__bitsForTID0__gtAGG____anonstruct_D_Work_4 gtINDEX18)))
(flet ($x295 (= gtINDEX17 (select gtFIELD__bitsForTID0__gtAGG____anonstruct_D_Work_4 gtINDEX16)))
(flet ($x291 (= gtINDEX15 (select gtFIELD__bitsForTID0__gtAGG____anonstruct_D_Work_4 gtINDEX14)))
(flet ($x287 (= gtINDEX13 (select gtFIELD__bitsForTID0__gtAGG____anonstruct_D_Work_4 gtINDEX12)))
(flet ($x283 (= gtINDEX11 (select gtFIELD__bitsForTID0__gtAGG____anonstruct_D_Work_4 gtINDEX10)))
(flet ($x279 (= gtINDEX9 (select gtFIELD__bitsForTID0__gtAGG____anonstruct_D_Work_4 gtINDEX8)))
(flet ($x275 (= gtINDEX7 (select gtFIELD__bitsForTID0__gtAGG____anonstruct_D_Work_4 gtINDEX6)))
(flet ($x271 (= gtINDEX5 (select gtFIELD__bitsForTID0__gtAGG____anonstruct_D_Work_4 gtINDEX4)))
(flet ($x267 (= gtINDEX3 (select gtFIELD__bitsForTID0__gtAGG____anonstruct_D_Work_4 gtINDEX2)))
(flet ($x263 (= gtINDEX1 (select gtFIELD__bitsForTID0__gtAGG____anonstruct_D_Work_4 gtINDEX0)))
(let (?x247 (extract[0:0] bv1[32]))
(let (?x257 (store gtFIELD__is_Eng__gtAGG____anonstruct_bitsForTID0_5_1_ gtINDEX73 ?x247))
(flet ($x507 (iff constraint54 (= gtFIELD__is_Eng__gtAGG____anonstruct_bitsForTID0_5_2_ ?x257)))
(let (?x253 (select gtFIELD__is_Eng__gtAGG____anonstruct_bitsForTID0_5_1_ gtINDEX71))
(let (?x248 (store gtFIELD__is_Eng__gtAGG____anonstruct_bitsForTID0_5 gtINDEX69 ?x247))
(flet ($x501 (iff constraint51 (= gtFIELD__is_Eng__gtAGG____anonstruct_bitsForTID0_5_1_ ?x248)))
(let (?x244 (zero_extend[31] (select gtFIELD__is_Eng__gtAGG____anonstruct_bitsForTID0_5 gtINDEX67)))
(let (?x240 (store gtFIELD__sent__gtAGG____anonstruct_D_Work_4_1_ gtINDEX65 bv0[32]))
(flet ($x497 (iff constraint49 (= gtFIELD__sent__gtAGG____anonstruct_D_Work_4_2_ ?x240)))
(let (?x136 (bvmul bv4294967295[32] bv1[32]))
(flet ($x238 (= (select gtFIELD__sent__gtAGG____anonstruct_D_Work_4_1_ gtINDEX64) ?x136))
(flet ($x234 (= (select gtFIELD__sent__gtAGG____anonstruct_D_Work_4_1_ gtINDEX63) bv9[32]))
(flet ($x230 (= (select gtFIELD__sent__gtAGG____anonstruct_D_Work_4_1_ gtINDEX62) bv4[32]))
(let (?x226 (zero_extend[31] (select gtFIELD__is_Eng__gtAGG____anonstruct_bitsForTID0_5 gtINDEX61)))
(let (?x220 (select gtFIELD__is_active_Eng__gtAGG____anonstruct_bitsForTID0_5 gtINDEX59))
(let (?x214 (select gtFIELD__is_active_PURI__gtAGG____anonstruct_bitsForTID0_5 gtINDEX57))
(let (?x208 (select gtFIELD__is_PVRP__gtAGG____anonstruct_bitsForTID0_5 gtINDEX55))
(let (?x203 (select gtFIELD__is_active_PVRP__gtAGG____anonstruct_bitsForTID0_5 gtINDEX53))
(let (?x95 (extract[1:0] bv0[32]))
(let (?x200 (store gtFIELD__is_PPVARP__gtAGG____anonstruct_bitsForTID0_5_1_ gtINDEX51 ?x95))
(flet ($x475 (iff constraint38 (= gtFIELD__is_PPVARP__gtAGG____anonstruct_bitsForTID0_5_2_ ?x200)))
(let (?x195 (select gtFIELD__is_PPVARP__gtAGG____anonstruct_bitsForTID0_5_1_ gtINDEX49))
(let (?x190 (select gtFIELD__is_PPVARP__gtAGG____anonstruct_bitsForTID0_5_1_ gtINDEX47))
(let (?x185 (select gtFIELD__is_PPVARP__gtAGG____anonstruct_bitsForTID0_5_1_ gtINDEX45))
(let (?x180 (select gtFIELD__is_active_PPVARP__gtAGG____anonstruct_bitsForTID0_5 gtINDEX43))
(let (?x172 (select gtFIELD__is_PLRI__gtAGG____anonstruct_bitsForTID0_5 gtINDEX41))
(let (?x167 (select gtFIELD__is_PLRI__gtAGG____anonstruct_bitsForTID0_5 gtINDEX39))
(let (?x162 (select gtFIELD__is_active_PLRI__gtAGG____anonstruct_bitsForTID0_5 gtINDEX37))
(let (?x156 (select gtFIELD__is_active_PAVI__gtAGG____anonstruct_bitsForTID0_5 gtINDEX35))
(flet ($x148 (= gtFIELD__sent__gtAGG____anonstruct_D_Work_4_1_ (store gtFIELD__sent__gtAGG____anonstruct_D_Work_4 gtINDEX33 ?x136)))
(flet ($x145 (= (select gtFIELD__sent__gtAGG____anonstruct_D_Work_4 gtINDEX32) bv2[32]))
(flet ($x141 (= (select gtFIELD__sent__gtAGG____anonstruct_D_Work_4 gtINDEX31) bv1[32]))
(flet ($x137 (= (select gtFIELD__sent__gtAGG____anonstruct_D_Work_4 gtINDEX30) ?x136))
(flet ($x131 (= (select gtFIELD__sent__gtAGG____anonstruct_D_Work_4 gtINDEX29) bv9[32]))
(flet ($x126 (= (select gtFIELD__sent__gtAGG____anonstruct_D_Work_4 gtINDEX28) bv4[32]))
(let (?x122 (zero_extend[31] (select gtFIELD__is_Eng__gtAGG____anonstruct_bitsForTID0_5 gtINDEX27)))
(let (?x116 (select gtFIELD__is_active_Eng__gtAGG____anonstruct_bitsForTID0_5 gtINDEX25))
(let (?x110 (select gtFIELD__is_active_PURI__gtAGG____anonstruct_bitsForTID0_5 gtINDEX23))
(let (?x104 (select gtFIELD__is_PVRP__gtAGG____anonstruct_bitsForTID0_5 gtINDEX21))
(let (?x99 (select gtFIELD__is_active_PVRP__gtAGG____anonstruct_bitsForTID0_5 gtINDEX19))
(let (?x96 (store gtFIELD__is_PPVARP__gtAGG____anonstruct_bitsForTID0_5 gtINDEX17 ?x95))
(flet ($x421 (iff constraint11 (= gtFIELD__is_PPVARP__gtAGG____anonstruct_bitsForTID0_5_1_ ?x96)))
(let (?x89 (select gtFIELD__is_PPVARP__gtAGG____anonstruct_bitsForTID0_5 gtINDEX15))
(let (?x84 (select gtFIELD__is_PPVARP__gtAGG____anonstruct_bitsForTID0_5 gtINDEX13))
(let (?x79 (select gtFIELD__is_PPVARP__gtAGG____anonstruct_bitsForTID0_5 gtINDEX11))
(let (?x74 (select gtFIELD__is_active_PPVARP__gtAGG____anonstruct_bitsForTID0_5 gtINDEX9))
(let (?x64 (zero_extend[30] (select gtFIELD__is_PLRI__gtAGG____anonstruct_bitsForTID0_5 gtINDEX7)))
(let (?x58 (zero_extend[30] (select gtFIELD__is_PLRI__gtAGG____anonstruct_bitsForTID0_5 gtINDEX5)))
(let (?x52 (select gtFIELD__is_active_PLRI__gtAGG____anonstruct_bitsForTID0_5 gtINDEX3))
(let (?x45 (select gtFIELD__is_active_PAVI__gtAGG____anonstruct_bitsForTID0_5 gtINDEX1))
(flet ($x656 (and (iff constraint0 (not (= sfEvent_ bv8[32]))) (iff constraint1 (not (not (= (zero_extend[31] ?x45) bv0[32])))) (iff constraint2 (not (= (zero_extend[31] ?x52) bv0[32]))) (iff constraint3 (not (= ?x58 bv1[32]))) (iff constraint4 (= ?x64 bv2[32])) (iff constraint5 (not (= sfEvent_ bv4[32]))) (iff constraint6 (not (= sfEvent_ bv5[32]))) (iff constraint7 (not (= (zero_extend[31] ?x74) bv0[32]))) (iff constraint8 (not (= (zero_extend[30] ?x79) bv1[32]))) (iff constraint9 (not (= (zero_extend[30] ?x84) bv2[32]))) (iff constraint10 (not (= (zero_extend[30] ?x89) bv3[32]))) $x421 (iff constraint12 (not (= (zero_extend[31] ?x99) bv0[32]))) (iff constraint13 (= (zero_extend[30] ?x104) bv1[32])) (iff constraint14 (not (= sfEvent_ bv0[32]))) (iff constraint15 (not (= sfEvent_ bv4[32]))) (iff constraint16 (not (not (= (zero_extend[31] ?x110) bv0[32])))) (iff constraint17 (not (= (zero_extend[31] ?x116) bv0[32]))) (iff constraint18 (= ?x122 bv1[32])) (iff constraint19 (not $x126)) (iff constraint20 (not $x131)) (iff constraint21 (not $x137)) (iff constraint22 (not $x141)) (iff constraint23 $x145) (iff constraint24 $x148) (iff constraint25 (= sf_previousEvent_1_ sfEvent_)) (iff constraint26 (= sfEvent__1_ bv3[32])) (iff constraint27 (not (= sfEvent__1_ bv8[32]))) (iff constraint28 (not (not (= (zero_extend[31] ?x156) bv0[32])))) (iff constraint29 (not (= (zero_extend[31] ?x162) bv0[32]))) (iff constraint30 (not (= (zero_extend[30] ?x167) bv1[32]))) (iff constraint31 (= (zero_extend[30] ?x172) bv2[32])) (iff constraint32 (not (= sfEvent__1_ bv4[32]))) (iff constraint33 (not (= sfEvent__1_ bv5[32]))) (iff constraint34 (not (= (zero_extend[31] ?x180) bv0[32]))) (iff constraint35 (not (= (zero_extend[30] ?x185) bv1[32]))) (iff constraint36 (not (= (zero_extend[30] ?x190) bv2[32]))) (iff constraint37 (not (= (zero_extend[30] ?x195) bv3[32]))) $x475 (iff constraint39 (not (= (zero_extend[31] ?x203) bv0[32]))) (iff constraint40 (= (zero_extend[30] ?x208) bv1[32])) (iff constraint41 (not (= sfEvent__1_ bv0[32]))) (iff constraint42 (not (= sfEvent__1_ bv4[32]))) (iff constraint43 (not (not (= (zero_extend[31] ?x214) bv0[32])))) (iff constraint44 (not (= (zero_extend[31] ?x220) bv0[32]))) (iff constraint45 (= ?x226 bv1[32])) (iff constraint46 (not $x230)) (iff constraint47 (not $x234)) (iff constraint48 $x238) $x497 (iff constraint50 (= ?x244 bv1[32])) $x501 (iff constraint52 (= sfEvent__2_ sf_previousEvent_1_)) (iff constraint53 (= (zero_extend[31] ?x253) bv1[32])) $x507 (iff constraint55 (= gtINDEX0 gtAGG__rtDWork)) (iff constraint56 $x263) (iff constraint57 (= gtINDEX2 gtAGG__rtDWork)) (iff constraint58 $x267) (iff constraint59 (= gtINDEX4 gtAGG__rtDWork)) (iff constraint60 $x271) (iff constraint61 (= gtINDEX6 gtAGG__rtDWork)) (iff constraint62 $x275) (iff constraint63 (= gtINDEX8 gtAGG__rtDWork)) (iff constraint64 $x279) (iff constraint65 (= gtINDEX10 gtAGG__rtDWork)) (iff constraint66 $x283) (iff constraint67 (= gtINDEX12 gtAGG__rtDWork)) (iff constraint68 $x287) (iff constraint69 (= gtINDEX14 gtAGG__rtDWork)) (iff constraint70 $x291) (iff constraint71 (= gtINDEX16 gtAGG__rtDWork)) (iff constraint72 $x295) (iff constraint73 (= gtINDEX18 gtAGG__rtDWork)) (iff constraint74 $x299) (iff constraint75 (= gtINDEX20 gtAGG__rtDWork)) (iff constraint76 $x303) (iff constraint77 (= gtINDEX22 gtAGG__rtDWork)) (iff constraint78 $x307) (iff constraint79 (= gtINDEX24 gtAGG__rtDWork)) (iff constraint80 $x311) (iff constraint81 (= gtINDEX26 gtAGG__rtDWork)) (iff constraint82 $x315) (iff constraint83 (= gtINDEX28 gtAGG__rtDWork)) (iff constraint84 (= gtINDEX29 gtAGG__rtDWork)) (iff constraint85 (= gtINDEX30 gtAGG__rtDWork)) (iff constraint86 (= gtINDEX31 gtAGG__rtDWork)) (iff constraint87 (= gtINDEX32 gtAGG__rtDWork)) (iff constraint88 (= gtINDEX33 gtAGG__rtDWork)) (iff constraint89 (= gtINDEX34 gtAGG__rtDWork)) (iff constraint90 $x325) (iff constraint91 (= gtINDEX36 gtAGG__rtDWork)) (iff constraint92 $x329) (iff constraint93 (= gtINDEX38 gtAGG__rtDWork)) (iff constraint94 $x333) (iff constraint95 (= gtINDEX40 gtAGG__rtDWork)) (iff constraint96 $x337) (iff constraint97 (= gtINDEX42 gtAGG__rtDWork)) (iff constraint98 $x341) (iff constraint99 (= gtINDEX44 gtAGG__rtDWork)) (iff constraint100 $x345) (iff constraint101 (= gtINDEX46 gtAGG__rtDWork)) (iff constraint102 $x349) (iff constraint103 (= gtINDEX48 gtAGG__rtDWork)) (iff constraint104 $x353) (iff constraint105 (= gtINDEX50 gtAGG__rtDWork)) (iff constraint106 $x357) (iff constraint107 (= gtINDEX52 gtAGG__rtDWork)) (iff constraint108 $x361) (iff constraint109 (= gtINDEX54 gtAGG__rtDWork)) (iff constraint110 $x365) (iff constraint111 (= gtINDEX56 gtAGG__rtDWork)) (iff constraint112 $x369) (iff constraint113 (= gtINDEX58 gtAGG__rtDWork)) (iff constraint114 $x373) (iff constraint115 (= gtINDEX60 gtAGG__rtDWork)) (iff constraint116 $x377) (iff constraint117 (= gtINDEX62 gtAGG__rtDWork)) (iff constraint118 (= gtINDEX63 gtAGG__rtDWork)) (iff constraint119 (= gtINDEX64 gtAGG__rtDWork)) (iff constraint120 (= gtINDEX65 gtAGG__rtDWork)) (iff constraint121 (= gtINDEX66 gtAGG__rtDWork)) (iff constraint122 $x385) (iff constraint123 (= gtINDEX68 gtAGG__rtDWork)) (iff constraint124 $x389) (iff constraint125 (= gtINDEX70 gtAGG__rtDWork)) (iff constraint126 $x393) (iff constraint127 (= gtINDEX72 gtAGG__rtDWork)) (iff constraint128 $x397)))
(and $x656 $x657)))))))))))))))))))))))))))))))))))))))))))))))))))))))))))))))))))))))))))))))))))))
)
